db/data/7981322574330572322630170151935326757.z3.out
-------------------
2500.768563997
